NAME: pr76.heu.tour
TYPE: TOUR
COMMENT: Heuristic tour (Lin-Kernighan), length 109044.07
DIMENSION: 76
TOUR_SECTION
1
76
75
2
3
4
5
6
7
8
9
10
11
12
13
14
74
15
16
17
18
37
36
38
39
35
34
40
41
60
59
61
62
58
57
63
64
73
72
71
65
66
51
56
55
52
53
54
42
43
28
33
32
29
30
31
19
20
26
27
49
50
67
70
68
69
47
48
44
45
46
24
25
21
22
23
-1
EOF
